(set-info :smt-lib-version 2.6)
(set-logic QF_NIA)
(set-info :source |
Generated by: Cristina Borralleras, Daniel Larraz, Albert Oliveras, Enric Rodriguez-Carbonell, Albert Rubio
Generated on: 2017-04-27
Generator: VeryMax
Application: Termination proving
Target solver: barcelogic
|)
(set-info :license "https://creativecommons.org/licenses/by/4.0/")
(set-info :category "industrial")
(set-info :status unknown)
(declare-fun Nl7arg11 () Int)
(declare-fun Nl7arg21 () Int)
(declare-fun Nl7arg31 () Int)
(declare-fun Nl7arg41 () Int)
(declare-fun Nl7arg51 () Int)
(declare-fun Nl7arg12 () Int)
(declare-fun Nl7arg22 () Int)
(declare-fun Nl7arg32 () Int)
(declare-fun Nl7arg42 () Int)
(declare-fun Nl7arg52 () Int)
(declare-fun lam0n0 () Int)
(declare-fun lam0n1 () Int)
(declare-fun lam0n2 () Int)
(declare-fun lam0n3 () Int)
(declare-fun lam0n4 () Int)
(declare-fun lam0n5 () Int)
(declare-fun lam0n6 () Int)
(declare-fun lam0n7 () Int)
(declare-fun lam0n8 () Int)
(declare-fun lam0n9 () Int)
(declare-fun lam0n10 () Int)
(declare-fun Nl7CT1 () Int)
(declare-fun Nl7CT2 () Int)
(declare-fun lam1n0 () Int)
(declare-fun lam1n1 () Int)
(declare-fun lam1n2 () Int)
(declare-fun lam1n3 () Int)
(declare-fun lam1n4 () Int)
(declare-fun lam1n5 () Int)
(declare-fun lam1n6 () Int)
(declare-fun lam1n7 () Int)
(declare-fun lam1n8 () Int)
(declare-fun lam1n9 () Int)
(declare-fun lam1n10 () Int)
(declare-fun lam2n0 () Int)
(declare-fun lam2n1 () Int)
(declare-fun lam2n2 () Int)
(declare-fun lam2n3 () Int)
(declare-fun lam2n4 () Int)
(declare-fun lam2n5 () Int)
(declare-fun lam2n6 () Int)
(declare-fun lam2n7 () Int)
(declare-fun lam2n8 () Int)
(declare-fun lam2n9 () Int)
(declare-fun lam2n10 () Int)
(declare-fun lam3n0 () Int)
(declare-fun lam3n1 () Int)
(declare-fun lam3n2 () Int)
(declare-fun lam3n3 () Int)
(declare-fun lam3n4 () Int)
(declare-fun lam3n5 () Int)
(declare-fun lam3n6 () Int)
(declare-fun lam3n7 () Int)
(declare-fun lam4n0 () Int)
(declare-fun lam4n1 () Int)
(declare-fun lam4n2 () Int)
(declare-fun lam4n3 () Int)
(declare-fun lam4n4 () Int)
(declare-fun lam4n5 () Int)
(declare-fun lam4n6 () Int)
(declare-fun lam4n7 () Int)
(declare-fun lam5n0 () Int)
(declare-fun lam5n1 () Int)
(declare-fun lam5n2 () Int)
(declare-fun lam5n3 () Int)
(declare-fun lam5n4 () Int)
(declare-fun lam5n5 () Int)
(declare-fun lam5n6 () Int)
(declare-fun lam5n7 () Int)
(declare-fun lam6n0 () Int)
(declare-fun lam6n1 () Int)
(declare-fun lam6n2 () Int)
(declare-fun lam6n3 () Int)
(declare-fun lam6n4 () Int)
(declare-fun lam6n5 () Int)
(declare-fun lam6n6 () Int)
(declare-fun lam6n7 () Int)
(declare-fun lam6n8 () Int)
(declare-fun lam7n0 () Int)
(declare-fun lam7n1 () Int)
(declare-fun lam7n2 () Int)
(declare-fun lam7n3 () Int)
(declare-fun lam7n4 () Int)
(declare-fun lam7n5 () Int)
(declare-fun lam7n6 () Int)
(declare-fun lam7n7 () Int)
(declare-fun lam7n8 () Int)
(declare-fun undef1 () Int)
(declare-fun undef98 () Int)
(declare-fun undef82 () Int)
(declare-fun undef2 () Int)
(declare-fun undef81 () Int)
(declare-fun undef80 () Int)
(declare-fun undef83 () Int)
(declare-fun undef84 () Int)
(declare-fun lam11n0 () Int)
(declare-fun lam11n1 () Int)
(declare-fun lam11n2 () Int)
(declare-fun lam11n3 () Int)
(declare-fun lam11n4 () Int)
(declare-fun lam11n5 () Int)
(declare-fun lam11n6 () Int)
(declare-fun lam11n7 () Int)
(declare-fun lam11n8 () Int)
(declare-fun lam11n9 () Int)
(declare-fun lam11n10 () Int)
(declare-fun RFN1_CT () Int)
(declare-fun RFN1_arg1 () Int)
(declare-fun RFN1_arg2 () Int)
(declare-fun RFN1_arg3 () Int)
(declare-fun RFN1_arg4 () Int)
(declare-fun RFN1_arg5 () Int)
(declare-fun lam15n0 () Int)
(declare-fun lam15n1 () Int)
(declare-fun lam15n2 () Int)
(declare-fun lam15n3 () Int)
(declare-fun lam15n4 () Int)
(declare-fun lam15n5 () Int)
(declare-fun lam15n6 () Int)
(declare-fun lam15n7 () Int)
(declare-fun lam9n0 () Int)
(declare-fun lam9n1 () Int)
(declare-fun lam9n2 () Int)
(declare-fun lam9n3 () Int)
(declare-fun lam9n4 () Int)
(declare-fun lam9n5 () Int)
(declare-fun lam9n6 () Int)
(declare-fun lam9n7 () Int)
(declare-fun lam9n8 () Int)
(declare-fun lam9n9 () Int)
(declare-fun lam9n10 () Int)
(declare-fun lam10n0 () Int)
(declare-fun lam10n1 () Int)
(declare-fun lam10n2 () Int)
(declare-fun lam10n3 () Int)
(declare-fun lam10n4 () Int)
(declare-fun lam10n5 () Int)
(declare-fun lam10n6 () Int)
(declare-fun lam10n7 () Int)
(declare-fun lam10n8 () Int)
(declare-fun lam10n9 () Int)
(declare-fun lam10n10 () Int)
(declare-fun lam13n0 () Int)
(declare-fun lam13n1 () Int)
(declare-fun lam13n2 () Int)
(declare-fun lam13n3 () Int)
(declare-fun lam13n4 () Int)
(declare-fun lam13n5 () Int)
(declare-fun lam13n6 () Int)
(declare-fun lam13n7 () Int)
(declare-fun lam14n0 () Int)
(declare-fun lam14n1 () Int)
(declare-fun lam14n2 () Int)
(declare-fun lam14n3 () Int)
(declare-fun lam14n4 () Int)
(declare-fun lam14n5 () Int)
(declare-fun lam14n6 () Int)
(declare-fun lam14n7 () Int)
(declare-fun lam8n0 () Int)
(declare-fun lam8n1 () Int)
(declare-fun lam8n2 () Int)
(declare-fun lam8n3 () Int)
(declare-fun lam8n4 () Int)
(declare-fun lam8n5 () Int)
(declare-fun lam8n6 () Int)
(declare-fun lam8n7 () Int)
(declare-fun lam8n8 () Int)
(declare-fun lam8n9 () Int)
(declare-fun lam8n10 () Int)
(declare-fun lam12n0 () Int)
(declare-fun lam12n1 () Int)
(declare-fun lam12n2 () Int)
(declare-fun lam12n3 () Int)
(declare-fun lam12n4 () Int)
(declare-fun lam12n5 () Int)
(declare-fun lam12n6 () Int)
(declare-fun lam12n7 () Int)
(assert ( and ( <= ( - 1 ) Nl7arg11 ) ( <= Nl7arg11 1 ) ( <= ( - 1 ) Nl7arg21 ) ( <= Nl7arg21 1 ) ( <= ( - 1 ) Nl7arg31 ) ( <= Nl7arg31 1 ) ( <= ( - 1 ) Nl7arg41 ) ( <= Nl7arg41 1 ) ( <= ( - 1 ) Nl7arg51 ) ( <= Nl7arg51 1 ) ( <= ( - 1 ) Nl7arg12 ) ( <= Nl7arg12 1 ) ( <= ( - 1 ) Nl7arg22 ) ( <= Nl7arg22 1 ) ( <= ( - 1 ) Nl7arg32 ) ( <= Nl7arg32 1 ) ( <= ( - 1 ) Nl7arg42 ) ( <= Nl7arg42 1 ) ( <= ( - 1 ) Nl7arg52 ) ( <= Nl7arg52 1 ) ))
(assert ( or ( and ( >= lam0n0 0 ) ( >= lam0n1 0 ) ( >= lam0n2 0 ) ( >= lam0n3 0 ) ( >= lam0n4 0 ) ( >= lam0n5 0 ) ( >= lam0n6 0 ) ( >= lam0n7 0 ) ( >= lam0n8 0 ) ( >= lam0n9 0 ) ( >= lam0n10 0 ) ( > ( + ( * 1 lam0n2 ) ( * 1 lam0n3 ) ( * 2 lam0n4 ) ( * 2 lam0n5 ) ( * 2 lam0n6 ) ( * ( - 2 ) lam0n7 ) ( * 3 lam0n8 ) ( * Nl7CT1 lam0n9 ) ( * Nl7CT2 lam0n10 ) ( - 1 ) ) 0 ) ( = ( + ( * ( - 1 ) lam0n2 ) ( * ( - 1 ) lam0n8 ) ( * Nl7arg11 lam0n9 ) ( * Nl7arg12 lam0n10 ) ) 0 ) ( = ( + ( * ( - 1 ) lam0n0 ) ( * ( - 1 ) lam0n4 ) ( * Nl7arg21 lam0n9 ) ( * Nl7arg22 lam0n10 ) ) 0 ) ( = ( + ( * ( - 1 ) lam0n1 ) ( * ( - 1 ) lam0n7 ) ( * Nl7arg31 lam0n9 ) ( * Nl7arg32 lam0n10 ) ) 0 ) ( = ( + ( * Nl7arg41 lam0n9 ) ( * Nl7arg42 lam0n10 ) ) 0 ) ( = ( + ( * Nl7arg51 lam0n9 ) ( * Nl7arg52 lam0n10 ) ) 0 ) ( = ( * ( - 1 ) lam0n3 ) 0 ) ( = ( * ( - 1 ) lam0n5 ) 0 ) ( = ( + ( * 1 lam0n0 ) ( * 1 lam0n2 ) ( * ( - 1 ) lam0n6 ) ( * 1 lam0n7 ) ) 0 ) ) ( and ( >= lam1n0 0 ) ( >= lam1n1 0 ) ( >= lam1n2 0 ) ( >= lam1n3 0 ) ( >= lam1n4 0 ) ( >= lam1n5 0 ) ( >= lam1n6 0 ) ( >= lam1n7 0 ) ( >= lam1n8 0 ) ( >= lam1n9 0 ) ( >= lam1n10 0 ) ( > ( + ( * 1 lam1n2 ) ( * 1 lam1n3 ) ( * 2 lam1n4 ) ( * 2 lam1n5 ) ( * 2 lam1n6 ) ( * ( - 2 ) lam1n7 ) ( * 3 lam1n8 ) ( * Nl7CT1 lam1n9 ) ( * Nl7CT2 lam1n10 ) ( - 1 ( + ( + ( + ( + ( + Nl7CT1 ( * Nl7arg11 0 ) ) ( * Nl7arg21 0 ) ) ( * Nl7arg31 0 ) ) ( * Nl7arg41 0 ) ) ( * Nl7arg51 0 ) ) ) ) 0 ) ( = ( + ( * ( - 1 ) lam1n2 ) ( * ( - 1 ) lam1n8 ) ( * Nl7arg11 lam1n9 ) ( * Nl7arg12 lam1n10 ) ) 0 ) ( = ( + ( * ( - 1 ) lam1n0 ) ( * ( - 1 ) lam1n4 ) ( * Nl7arg21 lam1n9 ) ( * Nl7arg22 lam1n10 ) ) 0 ) ( = ( + ( * ( - 1 ) lam1n1 ) ( * ( - 1 ) lam1n7 ) ( * Nl7arg31 lam1n9 ) ( * Nl7arg32 lam1n10 ) ) 0 ) ( = ( + ( * Nl7arg41 lam1n9 ) ( * Nl7arg42 lam1n10 ) ) 0 ) ( = ( + ( * Nl7arg51 lam1n9 ) ( * Nl7arg52 lam1n10 ) ) 0 ) ( = ( + ( * ( - 1 ) lam1n3 ) ( - ( + 0 ( * Nl7arg11 1 ) ) ) ) 0 ) ( = ( + ( * ( - 1 ) lam1n5 ) ( - ( + 0 ( * Nl7arg21 1 ) ) ) ) 0 ) ( = ( + ( * 1 lam1n0 ) ( * 1 lam1n2 ) ( * ( - 1 ) lam1n6 ) ( * 1 lam1n7 ) ( - ( + 0 ( * Nl7arg31 1 ) ) ) ) 0 ) ( = ( - ( + 0 ( * Nl7arg41 1 ) ) ) 0 ) ( = ( - ( + 0 ( * Nl7arg51 1 ) ) ) 0 ) ) ))
(assert ( or ( and ( >= lam0n0 0 ) ( >= lam0n1 0 ) ( >= lam0n2 0 ) ( >= lam0n3 0 ) ( >= lam0n4 0 ) ( >= lam0n5 0 ) ( >= lam0n6 0 ) ( >= lam0n7 0 ) ( >= lam0n8 0 ) ( >= lam0n9 0 ) ( >= lam0n10 0 ) ( > ( + ( * 1 lam0n2 ) ( * 1 lam0n3 ) ( * 2 lam0n4 ) ( * 2 lam0n5 ) ( * 2 lam0n6 ) ( * ( - 2 ) lam0n7 ) ( * 3 lam0n8 ) ( * Nl7CT1 lam0n9 ) ( * Nl7CT2 lam0n10 ) ( - 1 ) ) 0 ) ( = ( + ( * ( - 1 ) lam0n2 ) ( * ( - 1 ) lam0n8 ) ( * Nl7arg11 lam0n9 ) ( * Nl7arg12 lam0n10 ) ) 0 ) ( = ( + ( * ( - 1 ) lam0n0 ) ( * ( - 1 ) lam0n4 ) ( * Nl7arg21 lam0n9 ) ( * Nl7arg22 lam0n10 ) ) 0 ) ( = ( + ( * ( - 1 ) lam0n1 ) ( * ( - 1 ) lam0n7 ) ( * Nl7arg31 lam0n9 ) ( * Nl7arg32 lam0n10 ) ) 0 ) ( = ( + ( * Nl7arg41 lam0n9 ) ( * Nl7arg42 lam0n10 ) ) 0 ) ( = ( + ( * Nl7arg51 lam0n9 ) ( * Nl7arg52 lam0n10 ) ) 0 ) ( = ( * ( - 1 ) lam0n3 ) 0 ) ( = ( * ( - 1 ) lam0n5 ) 0 ) ( = ( + ( * 1 lam0n0 ) ( * 1 lam0n2 ) ( * ( - 1 ) lam0n6 ) ( * 1 lam0n7 ) ) 0 ) ) ( and ( >= lam2n0 0 ) ( >= lam2n1 0 ) ( >= lam2n2 0 ) ( >= lam2n3 0 ) ( >= lam2n4 0 ) ( >= lam2n5 0 ) ( >= lam2n6 0 ) ( >= lam2n7 0 ) ( >= lam2n8 0 ) ( >= lam2n9 0 ) ( >= lam2n10 0 ) ( > ( + ( * 1 lam2n2 ) ( * 1 lam2n3 ) ( * 2 lam2n4 ) ( * 2 lam2n5 ) ( * 2 lam2n6 ) ( * ( - 2 ) lam2n7 ) ( * 3 lam2n8 ) ( * Nl7CT1 lam2n9 ) ( * Nl7CT2 lam2n10 ) ( - 1 ( + ( + ( + ( + ( + Nl7CT2 ( * Nl7arg12 0 ) ) ( * Nl7arg22 0 ) ) ( * Nl7arg32 0 ) ) ( * Nl7arg42 0 ) ) ( * Nl7arg52 0 ) ) ) ) 0 ) ( = ( + ( * ( - 1 ) lam2n2 ) ( * ( - 1 ) lam2n8 ) ( * Nl7arg11 lam2n9 ) ( * Nl7arg12 lam2n10 ) ) 0 ) ( = ( + ( * ( - 1 ) lam2n0 ) ( * ( - 1 ) lam2n4 ) ( * Nl7arg21 lam2n9 ) ( * Nl7arg22 lam2n10 ) ) 0 ) ( = ( + ( * ( - 1 ) lam2n1 ) ( * ( - 1 ) lam2n7 ) ( * Nl7arg31 lam2n9 ) ( * Nl7arg32 lam2n10 ) ) 0 ) ( = ( + ( * Nl7arg41 lam2n9 ) ( * Nl7arg42 lam2n10 ) ) 0 ) ( = ( + ( * Nl7arg51 lam2n9 ) ( * Nl7arg52 lam2n10 ) ) 0 ) ( = ( + ( * ( - 1 ) lam2n3 ) ( - ( + 0 ( * Nl7arg12 1 ) ) ) ) 0 ) ( = ( + ( * ( - 1 ) lam2n5 ) ( - ( + 0 ( * Nl7arg22 1 ) ) ) ) 0 ) ( = ( + ( * 1 lam2n0 ) ( * 1 lam2n2 ) ( * ( - 1 ) lam2n6 ) ( * 1 lam2n7 ) ( - ( + 0 ( * Nl7arg32 1 ) ) ) ) 0 ) ( = ( - ( + 0 ( * Nl7arg42 1 ) ) ) 0 ) ( = ( - ( + 0 ( * Nl7arg52 1 ) ) ) 0 ) ) ))
(assert ( or ( and ( >= lam3n0 0 ) ( >= lam3n1 0 ) ( >= lam3n2 0 ) ( >= lam3n3 0 ) ( >= lam3n4 0 ) ( >= lam3n5 0 ) ( >= lam3n6 0 ) ( >= lam3n7 0 ) ( > ( + ( * 1 lam3n0 ) ( * 1 lam3n1 ) ( * 2 lam3n2 ) ( * 5 lam3n3 ) ( * 3 lam3n4 ) ( * 3 lam3n5 ) ( * Nl7CT1 lam3n6 ) ( * Nl7CT2 lam3n7 ) ( - 1 ) ) 0 ) ( = ( + ( * ( - 1 ) lam3n4 ) ( * Nl7arg11 lam3n6 ) ( * Nl7arg12 lam3n7 ) ) 0 ) ( = ( + ( * ( - 1 ) lam3n5 ) ( * Nl7arg21 lam3n6 ) ( * Nl7arg22 lam3n7 ) ) 0 ) ( = ( + ( * ( - 1 ) lam3n0 ) ( * Nl7arg31 lam3n6 ) ( * Nl7arg32 lam3n7 ) ) 0 ) ( = ( + ( * Nl7arg41 lam3n6 ) ( * Nl7arg42 lam3n7 ) ) 0 ) ( = ( + ( * Nl7arg51 lam3n6 ) ( * Nl7arg52 lam3n7 ) ) 0 ) ( = ( * ( - 1 ) lam3n1 ) 0 ) ( = ( * ( - 1 ) lam3n2 ) 0 ) ( = ( * ( - 1 ) lam3n3 ) 0 ) ) ( and ( >= lam4n0 0 ) ( >= lam4n1 0 ) ( >= lam4n2 0 ) ( >= lam4n3 0 ) ( >= lam4n4 0 ) ( >= lam4n5 0 ) ( >= lam4n6 0 ) ( >= lam4n7 0 ) ( > ( + ( * 1 lam4n0 ) ( * 1 lam4n1 ) ( * 2 lam4n2 ) ( * 5 lam4n3 ) ( * 3 lam4n4 ) ( * 3 lam4n5 ) ( * Nl7CT1 lam4n6 ) ( * Nl7CT2 lam4n7 ) ( - 1 ( + ( + ( + ( + ( + Nl7CT1 ( * Nl7arg11 0 ) ) ( * Nl7arg21 0 ) ) ( * Nl7arg31 0 ) ) ( * Nl7arg41 0 ) ) ( * Nl7arg51 0 ) ) ) ) 0 ) ( = ( + ( * ( - 1 ) lam4n4 ) ( * Nl7arg11 lam4n6 ) ( * Nl7arg12 lam4n7 ) ) 0 ) ( = ( + ( * ( - 1 ) lam4n5 ) ( * Nl7arg21 lam4n6 ) ( * Nl7arg22 lam4n7 ) ) 0 ) ( = ( + ( * ( - 1 ) lam4n0 ) ( * Nl7arg31 lam4n6 ) ( * Nl7arg32 lam4n7 ) ) 0 ) ( = ( + ( * Nl7arg41 lam4n6 ) ( * Nl7arg42 lam4n7 ) ) 0 ) ( = ( + ( * Nl7arg51 lam4n6 ) ( * Nl7arg52 lam4n7 ) ) 0 ) ( = ( + ( * ( - 1 ) lam4n1 ) ( - ( + 0 ( * Nl7arg11 1 ) ) ) ) 0 ) ( = ( + ( * ( - 1 ) lam4n2 ) ( - ( + 0 ( * Nl7arg21 1 ) ) ) ) 0 ) ( = ( + ( * ( - 1 ) lam4n3 ) ( - ( + 0 ( * Nl7arg31 1 ) ) ) ) 0 ) ( = ( - ( + 0 ( * Nl7arg41 1 ) ) ) 0 ) ( = ( - ( + 0 ( * Nl7arg51 1 ) ) ) 0 ) ) ))
(assert ( or ( and ( >= lam3n0 0 ) ( >= lam3n1 0 ) ( >= lam3n2 0 ) ( >= lam3n3 0 ) ( >= lam3n4 0 ) ( >= lam3n5 0 ) ( >= lam3n6 0 ) ( >= lam3n7 0 ) ( > ( + ( * 1 lam3n0 ) ( * 1 lam3n1 ) ( * 2 lam3n2 ) ( * 5 lam3n3 ) ( * 3 lam3n4 ) ( * 3 lam3n5 ) ( * Nl7CT1 lam3n6 ) ( * Nl7CT2 lam3n7 ) ( - 1 ) ) 0 ) ( = ( + ( * ( - 1 ) lam3n4 ) ( * Nl7arg11 lam3n6 ) ( * Nl7arg12 lam3n7 ) ) 0 ) ( = ( + ( * ( - 1 ) lam3n5 ) ( * Nl7arg21 lam3n6 ) ( * Nl7arg22 lam3n7 ) ) 0 ) ( = ( + ( * ( - 1 ) lam3n0 ) ( * Nl7arg31 lam3n6 ) ( * Nl7arg32 lam3n7 ) ) 0 ) ( = ( + ( * Nl7arg41 lam3n6 ) ( * Nl7arg42 lam3n7 ) ) 0 ) ( = ( + ( * Nl7arg51 lam3n6 ) ( * Nl7arg52 lam3n7 ) ) 0 ) ( = ( * ( - 1 ) lam3n1 ) 0 ) ( = ( * ( - 1 ) lam3n2 ) 0 ) ( = ( * ( - 1 ) lam3n3 ) 0 ) ) ( and ( >= lam5n0 0 ) ( >= lam5n1 0 ) ( >= lam5n2 0 ) ( >= lam5n3 0 ) ( >= lam5n4 0 ) ( >= lam5n5 0 ) ( >= lam5n6 0 ) ( >= lam5n7 0 ) ( > ( + ( * 1 lam5n0 ) ( * 1 lam5n1 ) ( * 2 lam5n2 ) ( * 5 lam5n3 ) ( * 3 lam5n4 ) ( * 3 lam5n5 ) ( * Nl7CT1 lam5n6 ) ( * Nl7CT2 lam5n7 ) ( - 1 ( + ( + ( + ( + ( + Nl7CT2 ( * Nl7arg12 0 ) ) ( * Nl7arg22 0 ) ) ( * Nl7arg32 0 ) ) ( * Nl7arg42 0 ) ) ( * Nl7arg52 0 ) ) ) ) 0 ) ( = ( + ( * ( - 1 ) lam5n4 ) ( * Nl7arg11 lam5n6 ) ( * Nl7arg12 lam5n7 ) ) 0 ) ( = ( + ( * ( - 1 ) lam5n5 ) ( * Nl7arg21 lam5n6 ) ( * Nl7arg22 lam5n7 ) ) 0 ) ( = ( + ( * ( - 1 ) lam5n0 ) ( * Nl7arg31 lam5n6 ) ( * Nl7arg32 lam5n7 ) ) 0 ) ( = ( + ( * Nl7arg41 lam5n6 ) ( * Nl7arg42 lam5n7 ) ) 0 ) ( = ( + ( * Nl7arg51 lam5n6 ) ( * Nl7arg52 lam5n7 ) ) 0 ) ( = ( + ( * ( - 1 ) lam5n1 ) ( - ( + 0 ( * Nl7arg12 1 ) ) ) ) 0 ) ( = ( + ( * ( - 1 ) lam5n2 ) ( - ( + 0 ( * Nl7arg22 1 ) ) ) ) 0 ) ( = ( + ( * ( - 1 ) lam5n3 ) ( - ( + 0 ( * Nl7arg32 1 ) ) ) ) 0 ) ( = ( - ( + 0 ( * Nl7arg42 1 ) ) ) 0 ) ( = ( - ( + 0 ( * Nl7arg52 1 ) ) ) 0 ) ) ))
(assert ( and ( <= ( + undef1 ( * ( - 1 ) undef98 ) ) 0 ) ( <= ( * ( - 1 ) undef82 ) 0 ) ( <= ( + 1 ( * ( - 1 ) undef1 ) ) 0 ) ( <= ( + 1 ( * ( - 1 ) undef1 ) undef82 ) 0 ) ( <= ( + 1 ( * ( - 1 ) undef2 ) ) 0 ) ( <= ( + 1 ( * ( - 1 ) undef2 ) undef82 ) 0 ) ( <= ( + 1 ( * ( - 1 ) undef98 ) ) 0 ) ( <= ( + 2 ( * ( - 1 ) undef81 ) ) 0 ) ( not ( <= ( + ( - 2 ) undef80 ) 0 ) ) ( <= ( + ( + ( + ( + ( + ( + Nl7CT1 ( * Nl7arg11 0 ) ) ( * Nl7arg21 0 ) ) ( * Nl7arg31 0 ) ) ( * Nl7arg41 0 ) ) ( * Nl7arg51 0 ) ) ( * ( + 0 ( * Nl7arg11 1 ) ) undef80 ) ( * ( + 0 ( * Nl7arg21 1 ) ) undef81 ) ( * ( + 0 ( * Nl7arg31 1 ) ) undef82 ) ( * ( + 0 ( * Nl7arg41 1 ) ) undef83 ) ( * ( + 0 ( * Nl7arg51 1 ) ) undef84 ) ) 0 ) ( <= ( + ( + ( + ( + ( + ( + Nl7CT2 ( * Nl7arg12 0 ) ) ( * Nl7arg22 0 ) ) ( * Nl7arg32 0 ) ) ( * Nl7arg42 0 ) ) ( * Nl7arg52 0 ) ) ( * ( + 0 ( * Nl7arg12 1 ) ) undef80 ) ( * ( + 0 ( * Nl7arg22 1 ) ) undef81 ) ( * ( + 0 ( * Nl7arg32 1 ) ) undef82 ) ( * ( + 0 ( * Nl7arg42 1 ) ) undef83 ) ( * ( + 0 ( * Nl7arg52 1 ) ) undef84 ) ) 0 ) ))
(assert ( or ( and ( and ( and ( >= lam11n0 0 ) ( >= lam11n1 0 ) ( >= lam11n2 0 ) ( >= lam11n3 0 ) ( >= lam11n4 0 ) ( >= lam11n5 0 ) ( >= lam11n6 0 ) ( >= lam11n7 0 ) ( >= lam11n8 0 ) ( >= lam11n9 0 ) ( >= lam11n10 0 ) ( > ( + ( * 1 lam11n2 ) ( * 1 lam11n3 ) ( * 2 lam11n4 ) ( * 2 lam11n5 ) ( * 2 lam11n6 ) ( * ( - 2 ) lam11n7 ) ( * 3 lam11n8 ) ( * Nl7CT1 lam11n9 ) ( * Nl7CT2 lam11n10 ) ( - 1 ( - ( + ( + ( + ( + ( + RFN1_CT ( * RFN1_arg1 0 ) ) ( * RFN1_arg2 0 ) ) ( * RFN1_arg3 0 ) ) ( * RFN1_arg4 0 ) ) ( * RFN1_arg5 0 ) ) RFN1_CT ) ) ) 0 ) ( = ( + ( * ( - 1 ) lam11n2 ) ( * ( - 1 ) lam11n8 ) ( * Nl7arg11 lam11n9 ) ( * Nl7arg12 lam11n10 ) ( - ( - RFN1_arg1 ) ) ) 0 ) ( = ( + ( * ( - 1 ) lam11n0 ) ( * ( - 1 ) lam11n4 ) ( * Nl7arg21 lam11n9 ) ( * Nl7arg22 lam11n10 ) ( - ( - RFN1_arg2 ) ) ) 0 ) ( = ( + ( * ( - 1 ) lam11n1 ) ( * ( - 1 ) lam11n7 ) ( * Nl7arg31 lam11n9 ) ( * Nl7arg32 lam11n10 ) ( - ( - RFN1_arg3 ) ) ) 0 ) ( = ( + ( * Nl7arg41 lam11n9 ) ( * Nl7arg42 lam11n10 ) ( - ( - RFN1_arg4 ) ) ) 0 ) ( = ( + ( * Nl7arg51 lam11n9 ) ( * Nl7arg52 lam11n10 ) ( - ( - RFN1_arg5 ) ) ) 0 ) ( = ( + ( * ( - 1 ) lam11n3 ) ( - ( + 0 ( * RFN1_arg1 1 ) ) ) ) 0 ) ( = ( + ( * ( - 1 ) lam11n5 ) ( - ( + 0 ( * RFN1_arg2 1 ) ) ) ) 0 ) ( = ( + ( * 1 lam11n0 ) ( * 1 lam11n2 ) ( * ( - 1 ) lam11n6 ) ( * 1 lam11n7 ) ( - ( + 0 ( * RFN1_arg3 1 ) ) ) ) 0 ) ( = ( - ( + 0 ( * RFN1_arg4 1 ) ) ) 0 ) ( = ( - ( + 0 ( * RFN1_arg5 1 ) ) ) 0 ) ) ( and ( >= lam15n0 0 ) ( >= lam15n1 0 ) ( >= lam15n2 0 ) ( >= lam15n3 0 ) ( >= lam15n4 0 ) ( >= lam15n5 0 ) ( >= lam15n6 0 ) ( >= lam15n7 0 ) ( > ( + ( * 1 lam15n0 ) ( * 1 lam15n1 ) ( * 2 lam15n2 ) ( * 5 lam15n3 ) ( * 3 lam15n4 ) ( * 3 lam15n5 ) ( * Nl7CT1 lam15n6 ) ( * Nl7CT2 lam15n7 ) ( - 1 ( - ( + ( + ( + ( + ( + RFN1_CT ( * RFN1_arg1 0 ) ) ( * RFN1_arg2 0 ) ) ( * RFN1_arg3 0 ) ) ( * RFN1_arg4 0 ) ) ( * RFN1_arg5 0 ) ) RFN1_CT ) ) ) 0 ) ( = ( + ( * ( - 1 ) lam15n4 ) ( * Nl7arg11 lam15n6 ) ( * Nl7arg12 lam15n7 ) ( - ( - RFN1_arg1 ) ) ) 0 ) ( = ( + ( * ( - 1 ) lam15n5 ) ( * Nl7arg21 lam15n6 ) ( * Nl7arg22 lam15n7 ) ( - ( - RFN1_arg2 ) ) ) 0 ) ( = ( + ( * ( - 1 ) lam15n0 ) ( * Nl7arg31 lam15n6 ) ( * Nl7arg32 lam15n7 ) ( - ( - RFN1_arg3 ) ) ) 0 ) ( = ( + ( * Nl7arg41 lam15n6 ) ( * Nl7arg42 lam15n7 ) ( - ( - RFN1_arg4 ) ) ) 0 ) ( = ( + ( * Nl7arg51 lam15n6 ) ( * Nl7arg52 lam15n7 ) ( - ( - RFN1_arg5 ) ) ) 0 ) ( = ( + ( * ( - 1 ) lam15n1 ) ( - ( + 0 ( * RFN1_arg1 1 ) ) ) ) 0 ) ( = ( + ( * ( - 1 ) lam15n2 ) ( - ( + 0 ( * RFN1_arg2 1 ) ) ) ) 0 ) ( = ( + ( * ( - 1 ) lam15n3 ) ( - ( + 0 ( * RFN1_arg3 1 ) ) ) ) 0 ) ( = ( - ( + 0 ( * RFN1_arg4 1 ) ) ) 0 ) ( = ( - ( + 0 ( * RFN1_arg5 1 ) ) ) 0 ) ) ) ( or ( and ( and ( >= lam9n0 0 ) ( >= lam9n1 0 ) ( >= lam9n2 0 ) ( >= lam9n3 0 ) ( >= lam9n4 0 ) ( >= lam9n5 0 ) ( >= lam9n6 0 ) ( >= lam9n7 0 ) ( >= lam9n8 0 ) ( >= lam9n9 0 ) ( >= lam9n10 0 ) ( > ( + ( * 1 lam9n2 ) ( * 1 lam9n3 ) ( * 2 lam9n4 ) ( * 2 lam9n5 ) ( * 2 lam9n6 ) ( * ( - 2 ) lam9n7 ) ( * 3 lam9n8 ) ( * Nl7CT1 lam9n9 ) ( * Nl7CT2 lam9n10 ) ( - 1 ( - RFN1_CT ) ) ) 0 ) ( = ( + ( * ( - 1 ) lam9n2 ) ( * ( - 1 ) lam9n8 ) ( * Nl7arg11 lam9n9 ) ( * Nl7arg12 lam9n10 ) ( - ( - RFN1_arg1 ) ) ) 0 ) ( = ( + ( * ( - 1 ) lam9n0 ) ( * ( - 1 ) lam9n4 ) ( * Nl7arg21 lam9n9 ) ( * Nl7arg22 lam9n10 ) ( - ( - RFN1_arg2 ) ) ) 0 ) ( = ( + ( * ( - 1 ) lam9n1 ) ( * ( - 1 ) lam9n7 ) ( * Nl7arg31 lam9n9 ) ( * Nl7arg32 lam9n10 ) ( - ( - RFN1_arg3 ) ) ) 0 ) ( = ( + ( * Nl7arg41 lam9n9 ) ( * Nl7arg42 lam9n10 ) ( - ( - RFN1_arg4 ) ) ) 0 ) ( = ( + ( * Nl7arg51 lam9n9 ) ( * Nl7arg52 lam9n10 ) ( - ( - RFN1_arg5 ) ) ) 0 ) ( = ( * ( - 1 ) lam9n3 ) 0 ) ( = ( * ( - 1 ) lam9n5 ) 0 ) ( = ( + ( * 1 lam9n0 ) ( * 1 lam9n2 ) ( * ( - 1 ) lam9n6 ) ( * 1 lam9n7 ) ) 0 ) ) ( and ( >= lam10n0 0 ) ( >= lam10n1 0 ) ( >= lam10n2 0 ) ( >= lam10n3 0 ) ( >= lam10n4 0 ) ( >= lam10n5 0 ) ( >= lam10n6 0 ) ( >= lam10n7 0 ) ( >= lam10n8 0 ) ( >= lam10n9 0 ) ( >= lam10n10 0 ) ( > ( + ( * 1 lam10n2 ) ( * 1 lam10n3 ) ( * 2 lam10n4 ) ( * 2 lam10n5 ) ( * 2 lam10n6 ) ( * ( - 2 ) lam10n7 ) ( * 3 lam10n8 ) ( * Nl7CT1 lam10n9 ) ( * Nl7CT2 lam10n10 ) ( - 1 ( + ( - ( + ( + ( + ( + ( + RFN1_CT ( * RFN1_arg1 0 ) ) ( * RFN1_arg2 0 ) ) ( * RFN1_arg3 0 ) ) ( * RFN1_arg4 0 ) ) ( * RFN1_arg5 0 ) ) RFN1_CT ) 1 ) ) ) 0 ) ( = ( + ( * ( - 1 ) lam10n2 ) ( * ( - 1 ) lam10n8 ) ( * Nl7arg11 lam10n9 ) ( * Nl7arg12 lam10n10 ) ( - ( - RFN1_arg1 ) ) ) 0 ) ( = ( + ( * ( - 1 ) lam10n0 ) ( * ( - 1 ) lam10n4 ) ( * Nl7arg21 lam10n9 ) ( * Nl7arg22 lam10n10 ) ( - ( - RFN1_arg2 ) ) ) 0 ) ( = ( + ( * ( - 1 ) lam10n1 ) ( * ( - 1 ) lam10n7 ) ( * Nl7arg31 lam10n9 ) ( * Nl7arg32 lam10n10 ) ( - ( - RFN1_arg3 ) ) ) 0 ) ( = ( + ( * Nl7arg41 lam10n9 ) ( * Nl7arg42 lam10n10 ) ( - ( - RFN1_arg4 ) ) ) 0 ) ( = ( + ( * Nl7arg51 lam10n9 ) ( * Nl7arg52 lam10n10 ) ( - ( - RFN1_arg5 ) ) ) 0 ) ( = ( + ( * ( - 1 ) lam10n3 ) ( - ( + 0 ( * RFN1_arg1 1 ) ) ) ) 0 ) ( = ( + ( * ( - 1 ) lam10n5 ) ( - ( + 0 ( * RFN1_arg2 1 ) ) ) ) 0 ) ( = ( + ( * 1 lam10n0 ) ( * 1 lam10n2 ) ( * ( - 1 ) lam10n6 ) ( * 1 lam10n7 ) ( - ( + 0 ( * RFN1_arg3 1 ) ) ) ) 0 ) ( = ( - ( + 0 ( * RFN1_arg4 1 ) ) ) 0 ) ( = ( - ( + 0 ( * RFN1_arg5 1 ) ) ) 0 ) ) ) ( and ( and ( >= lam13n0 0 ) ( >= lam13n1 0 ) ( >= lam13n2 0 ) ( >= lam13n3 0 ) ( >= lam13n4 0 ) ( >= lam13n5 0 ) ( >= lam13n6 0 ) ( >= lam13n7 0 ) ( > ( + ( * 1 lam13n0 ) ( * 1 lam13n1 ) ( * 2 lam13n2 ) ( * 5 lam13n3 ) ( * 3 lam13n4 ) ( * 3 lam13n5 ) ( * Nl7CT1 lam13n6 ) ( * Nl7CT2 lam13n7 ) ( - 1 ( - RFN1_CT ) ) ) 0 ) ( = ( + ( * ( - 1 ) lam13n4 ) ( * Nl7arg11 lam13n6 ) ( * Nl7arg12 lam13n7 ) ( - ( - RFN1_arg1 ) ) ) 0 ) ( = ( + ( * ( - 1 ) lam13n5 ) ( * Nl7arg21 lam13n6 ) ( * Nl7arg22 lam13n7 ) ( - ( - RFN1_arg2 ) ) ) 0 ) ( = ( + ( * ( - 1 ) lam13n0 ) ( * Nl7arg31 lam13n6 ) ( * Nl7arg32 lam13n7 ) ( - ( - RFN1_arg3 ) ) ) 0 ) ( = ( + ( * Nl7arg41 lam13n6 ) ( * Nl7arg42 lam13n7 ) ( - ( - RFN1_arg4 ) ) ) 0 ) ( = ( + ( * Nl7arg51 lam13n6 ) ( * Nl7arg52 lam13n7 ) ( - ( - RFN1_arg5 ) ) ) 0 ) ( = ( * ( - 1 ) lam13n1 ) 0 ) ( = ( * ( - 1 ) lam13n2 ) 0 ) ( = ( * ( - 1 ) lam13n3 ) 0 ) ) ( and ( >= lam14n0 0 ) ( >= lam14n1 0 ) ( >= lam14n2 0 ) ( >= lam14n3 0 ) ( >= lam14n4 0 ) ( >= lam14n5 0 ) ( >= lam14n6 0 ) ( >= lam14n7 0 ) ( > ( + ( * 1 lam14n0 ) ( * 1 lam14n1 ) ( * 2 lam14n2 ) ( * 5 lam14n3 ) ( * 3 lam14n4 ) ( * 3 lam14n5 ) ( * Nl7CT1 lam14n6 ) ( * Nl7CT2 lam14n7 ) ( - 1 ( + ( - ( + ( + ( + ( + ( + RFN1_CT ( * RFN1_arg1 0 ) ) ( * RFN1_arg2 0 ) ) ( * RFN1_arg3 0 ) ) ( * RFN1_arg4 0 ) ) ( * RFN1_arg5 0 ) ) RFN1_CT ) 1 ) ) ) 0 ) ( = ( + ( * ( - 1 ) lam14n4 ) ( * Nl7arg11 lam14n6 ) ( * Nl7arg12 lam14n7 ) ( - ( - RFN1_arg1 ) ) ) 0 ) ( = ( + ( * ( - 1 ) lam14n5 ) ( * Nl7arg21 lam14n6 ) ( * Nl7arg22 lam14n7 ) ( - ( - RFN1_arg2 ) ) ) 0 ) ( = ( + ( * ( - 1 ) lam14n0 ) ( * Nl7arg31 lam14n6 ) ( * Nl7arg32 lam14n7 ) ( - ( - RFN1_arg3 ) ) ) 0 ) ( = ( + ( * Nl7arg41 lam14n6 ) ( * Nl7arg42 lam14n7 ) ( - ( - RFN1_arg4 ) ) ) 0 ) ( = ( + ( * Nl7arg51 lam14n6 ) ( * Nl7arg52 lam14n7 ) ( - ( - RFN1_arg5 ) ) ) 0 ) ( = ( + ( * ( - 1 ) lam14n1 ) ( - ( + 0 ( * RFN1_arg1 1 ) ) ) ) 0 ) ( = ( + ( * ( - 1 ) lam14n2 ) ( - ( + 0 ( * RFN1_arg2 1 ) ) ) ) 0 ) ( = ( + ( * ( - 1 ) lam14n3 ) ( - ( + 0 ( * RFN1_arg3 1 ) ) ) ) 0 ) ( = ( - ( + 0 ( * RFN1_arg4 1 ) ) ) 0 ) ( = ( - ( + 0 ( * RFN1_arg5 1 ) ) ) 0 ) ) ) ) ) ( or ( and ( >= lam8n0 0 ) ( >= lam8n1 0 ) ( >= lam8n2 0 ) ( >= lam8n3 0 ) ( >= lam8n4 0 ) ( >= lam8n5 0 ) ( >= lam8n6 0 ) ( >= lam8n7 0 ) ( >= lam8n8 0 ) ( >= lam8n9 0 ) ( >= lam8n10 0 ) ( > ( + ( * 1 lam8n2 ) ( * 1 lam8n3 ) ( * 2 lam8n4 ) ( * 2 lam8n5 ) ( * 2 lam8n6 ) ( * ( - 2 ) lam8n7 ) ( * 3 lam8n8 ) ( * Nl7CT1 lam8n9 ) ( * Nl7CT2 lam8n10 ) ( - 1 ) ) 0 ) ( = ( + ( * ( - 1 ) lam8n2 ) ( * ( - 1 ) lam8n8 ) ( * Nl7arg11 lam8n9 ) ( * Nl7arg12 lam8n10 ) ) 0 ) ( = ( + ( * ( - 1 ) lam8n0 ) ( * ( - 1 ) lam8n4 ) ( * Nl7arg21 lam8n9 ) ( * Nl7arg22 lam8n10 ) ) 0 ) ( = ( + ( * ( - 1 ) lam8n1 ) ( * ( - 1 ) lam8n7 ) ( * Nl7arg31 lam8n9 ) ( * Nl7arg32 lam8n10 ) ) 0 ) ( = ( + ( * Nl7arg41 lam8n9 ) ( * Nl7arg42 lam8n10 ) ) 0 ) ( = ( + ( * Nl7arg51 lam8n9 ) ( * Nl7arg52 lam8n10 ) ) 0 ) ( = ( * ( - 1 ) lam8n3 ) 0 ) ( = ( * ( - 1 ) lam8n5 ) 0 ) ( = ( + ( * 1 lam8n0 ) ( * 1 lam8n2 ) ( * ( - 1 ) lam8n6 ) ( * 1 lam8n7 ) ) 0 ) ) ( and ( >= lam12n0 0 ) ( >= lam12n1 0 ) ( >= lam12n2 0 ) ( >= lam12n3 0 ) ( >= lam12n4 0 ) ( >= lam12n5 0 ) ( >= lam12n6 0 ) ( >= lam12n7 0 ) ( > ( + ( * 1 lam12n0 ) ( * 1 lam12n1 ) ( * 2 lam12n2 ) ( * 5 lam12n3 ) ( * 3 lam12n4 ) ( * 3 lam12n5 ) ( * Nl7CT1 lam12n6 ) ( * Nl7CT2 lam12n7 ) ( - 1 ) ) 0 ) ( = ( + ( * ( - 1 ) lam12n4 ) ( * Nl7arg11 lam12n6 ) ( * Nl7arg12 lam12n7 ) ) 0 ) ( = ( + ( * ( - 1 ) lam12n5 ) ( * Nl7arg21 lam12n6 ) ( * Nl7arg22 lam12n7 ) ) 0 ) ( = ( + ( * ( - 1 ) lam12n0 ) ( * Nl7arg31 lam12n6 ) ( * Nl7arg32 lam12n7 ) ) 0 ) ( = ( + ( * Nl7arg41 lam12n6 ) ( * Nl7arg42 lam12n7 ) ) 0 ) ( = ( + ( * Nl7arg51 lam12n6 ) ( * Nl7arg52 lam12n7 ) ) 0 ) ( = ( * ( - 1 ) lam12n1 ) 0 ) ( = ( * ( - 1 ) lam12n2 ) 0 ) ( = ( * ( - 1 ) lam12n3 ) 0 ) ) ) ))
(check-sat)
(exit)
